%%%mzn-stat: initTime=0.007614907
%%%mzn-stat: objective=738
%%%mzn-stat: nodes=51119
%%%mzn-stat: restarts=34
%%%mzn-stat: peakDepth=337
%%%mzn-stat: solveTime=9.360662643
%%%mzn-stat: variables=642
%%%mzn-stat: propagators=435
%%%mzn-stat: failures=38486
%%%mzn-stat: propagations=1280397
%%%mzn-stat: nogoods=38486
%%%mzn-stat: AverageConflictSize=21.810372603024476
%%%mzn-stat: NumUnitNogoodsLearned=235
%%%mzn-stat: AverageLearnedNogoodLength=29.56872629007951
%%%mzn-stat: AverageBacktrackAmount=0
%%%mzn-stat: AverageLbd=14.008002910149145
%%%mzn-stat-end
maxleg = 738;
succ = array1d(1..50,[26, 17, 40, 14, 16, 34, 32, 15, 28, 2, 21, 31, 43, 44, 24, 37, 18, 13, 30, 4, 41, 36, 27, 39, 22, 23, 10, 19, 46, 38, 50, 42, 7, 29, 20, 1, 25, 47, 35, 12, 9, 6, 33, 3, 5, 11, 49, 8, 48, 45]);
% time elapsed: 12.04 s
----------
%%%mzn-stat: initTime=0.007614907
%%%mzn-stat: objective=737
%%%mzn-stat: nodes=52669
%%%mzn-stat: restarts=35
%%%mzn-stat: peakDepth=337
%%%mzn-stat: solveTime=9.49363956
%%%mzn-stat: variables=642
%%%mzn-stat: propagators=435
%%%mzn-stat: failures=39128
%%%mzn-stat: propagations=1302537
%%%mzn-stat: nogoods=39128
%%%mzn-stat: AverageConflictSize=21.817930893477815
%%%mzn-stat: NumUnitNogoodsLearned=235
%%%mzn-stat: AverageLearnedNogoodLength=29.5019679002249
%%%mzn-stat: AverageBacktrackAmount=0
%%%mzn-stat: AverageLbd=14.019091187896136
%%%mzn-stat-end
maxleg = 737;
succ = array1d(1..50,[26, 23, 40, 14, 16, 34, 32, 15, 28, 2, 21, 31, 18, 44, 24, 37, 38, 9, 30, 4, 41, 36, 42, 39, 22, 27, 10, 19, 7, 17, 50, 46, 43, 29, 20, 1, 25, 47, 35, 12, 13, 6, 11, 3, 5, 33, 49, 8, 48, 45]);
% time elapsed: 12.17 s
----------
%%%mzn-stat: initTime=0.007614907
%%%mzn-stat: objective=658
%%%mzn-stat: nodes=81490
%%%mzn-stat: restarts=36
%%%mzn-stat: peakDepth=337
%%%mzn-stat: solveTime=15.238974486
%%%mzn-stat: variables=642
%%%mzn-stat: propagators=435
%%%mzn-stat: failures=62702
%%%mzn-stat: propagations=1994095
%%%mzn-stat: nogoods=62702
%%%mzn-stat: AverageConflictSize=19.266418934005294
%%%mzn-stat: NumUnitNogoodsLearned=235
%%%mzn-stat: AverageLearnedNogoodLength=26.533252527830054
%%%mzn-stat: AverageBacktrackAmount=0
%%%mzn-stat: AverageLbd=12.415696469012152
%%%mzn-stat-end
maxleg = 658;
succ = array1d(1..50,[26, 23, 40, 14, 32, 34, 33, 15, 28, 2, 21, 31, 18, 44, 24, 37, 38, 9, 30, 4, 41, 16, 42, 39, 5, 27, 10, 19, 7, 17, 50, 45, 46, 29, 20, 22, 25, 47, 35, 12, 43, 6, 13, 3, 1, 11, 49, 8, 48, 36]);
% time elapsed: 17.91 s
----------
%%%mzn-stat: initTime=0.007614907
%%%mzn-stat: objective=315
%%%mzn-stat: nodes=94086
%%%mzn-stat: restarts=40
%%%mzn-stat: peakDepth=337
%%%mzn-stat: solveTime=18.387255156
%%%mzn-stat: variables=642
%%%mzn-stat: propagators=435
%%%mzn-stat: failures=73259
%%%mzn-stat: propagations=2317328
%%%mzn-stat: nogoods=73259
%%%mzn-stat: AverageConflictSize=19.96732142125882
%%%mzn-stat: NumUnitNogoodsLearned=235
%%%mzn-stat: AverageLearnedNogoodLength=27.046547181916214
%%%mzn-stat: AverageBacktrackAmount=0
%%%mzn-stat: AverageLbd=12.245225842558593
%%%mzn-stat-end
maxleg = 315;
succ = array1d(1..50,[26, 23, 40, 14, 32, 46, 33, 15, 28, 2, 21, 31, 11, 44, 20, 25, 38, 13, 18, 4, 41, 1, 34, 39, 5, 27, 10, 17, 7, 19, 36, 45, 37, 42, 24, 22, 16, 47, 30, 12, 43, 6, 9, 3, 50, 29, 49, 8, 48, 35]);
% time elapsed: 21.06 s
----------
%%%mzn-stat: initTime=0.007614907
%%%mzn-stat: objective=315
%%%mzn-stat: nodes=5445981
%%%mzn-stat: restarts=4099
%%%mzn-stat: peakDepth=337
%%%mzn-stat: solveTime=1797.508252729
%%%mzn-stat: variables=642
%%%mzn-stat: propagators=435
%%%mzn-stat: failures=4914969
%%%mzn-stat: propagations=127264968
%%%mzn-stat: nogoods=4914969
%%%mzn-stat: AverageConflictSize=20.66979995194273
%%%mzn-stat: NumUnitNogoodsLearned=235
%%%mzn-stat: AverageLearnedNogoodLength=27.61712311918956
%%%mzn-stat: AverageBacktrackAmount=0
%%%mzn-stat: AverageLbd=9.06979637104527
%%%mzn-stat-end
